param : I : Mu :=
    AAPL    0.0308
    GE     -0.0120
    GS      0.0027
    XOM     0.0018 ;

/* Positive Definite Sigma */
param   Sigma : 
            AAPL    GE      GS      XOM  :=
    AAPL    0.0158  0.0062  0.0088  0.0022
    GE      0.0062  0.0136  0.0064  0.0011
    GS      0.0088  0.0064  0.0135  0.0008
    XOM     0.0022  0.0011  0.0008  0.0022 ;
